; benchmark generated from python API
(set-info :status unknown)
(declare-fun x_epoch () Int)
(declare-fun x_plus_epoch () Int)
(declare-fun x_plus_month () Int)
(declare-fun x_plus_year () Int)
(declare-fun x_plus_day () Int)
(declare-fun x_plus_1_epoch () Int)
(assert
 (>= x_epoch (- 36584)))
(assert
 (<= x_epoch 36829))
(assert
 (>= x_epoch 7214))
(assert
 (<= x_epoch 7304))
(assert
 (>= x_plus_epoch (- 36584)))
(assert
 (<= x_plus_epoch 36829))
(assert
 (let (($x371 (= x_plus_month 11)))
 (let (($x557 (= x_plus_month 9)))
 (let (($x767 (= x_plus_month 6)))
 (let (($x464 (= x_plus_month 4)))
 (let ((?x1105 (ite (or $x464 $x767 $x557 $x371) 30 31)))
 (let (($x316 (= (mod x_plus_year 400) 0)))
 (let (($x1150 (= (mod x_plus_year 4) 0)))
 (let (($x451 (or (and $x1150 (and (distinct (mod x_plus_year 100) 0) true)) $x316)))
 (let (($x1256 (= x_plus_month 2)))
 (let (($x441 (>= x_plus_day 1)))
 (let (($x3269 (<= x_plus_month 12)))
 (let (($x797 (>= x_plus_month 1)))
 (let (($x683 (<= x_plus_year 2100)))
 (let (($x853 (>= x_plus_year 1900)))
 (and $x853 $x683 $x797 $x3269 $x441 (<= x_plus_day (ite $x1256 (ite $x451 29 28) ?x1105))))))))))))))))))
(assert
 (let (($x316 (= (mod x_plus_year 400) 0)))
 (let (($x1150 (= (mod x_plus_year 4) 0)))
 (let (($x451 (or (and $x1150 (and (distinct (mod x_plus_year 100) 0) true)) $x316)))
 (let (($x255 (= 2 x_plus_month)))
 (let ((?x461 (ite $x255 (ite $x451 31 31) (ite (= 1 x_plus_month) (ite $x451 0 0) 0))))
 (let (($x204 (= 3 x_plus_month)))
 (let (($x546 (= 4 x_plus_month)))
 (let ((?x447 (ite $x546 (ite $x451 91 90) (ite $x204 (ite $x451 60 59) ?x461))))
 (let (($x207 (= 5 x_plus_month)))
 (let (($x505 (= 6 x_plus_month)))
 (let ((?x318 (ite $x505 (ite $x451 152 151) (ite $x207 (ite $x451 121 120) ?x447))))
 (let (($x954 (= 7 x_plus_month)))
 (let (($x761 (= 8 x_plus_month)))
 (let ((?x210 (ite $x761 (ite $x451 213 212) (ite $x954 (ite $x451 182 181) ?x318))))
 (let (($x228 (= 9 x_plus_month)))
 (let (($x591 (= 10 x_plus_month)))
 (let ((?x848 (ite $x591 (ite $x451 274 273) (ite $x228 (ite $x451 244 243) ?x210))))
 (let (($x638 (= 11 x_plus_month)))
 (let (($x434 (= 12 x_plus_month)))
 (let ((?x301 (ite $x434 (ite $x451 335 334) (ite $x638 (ite $x451 305 304) ?x848))))
 (let ((?x225 (+ (* 365 (- x_plus_year 1)) (div (- x_plus_year 1) 4))))
 (let ((?x937 (+ (- ?x225 (div (- x_plus_year 1) 100)) (div (- x_plus_year 1) 400))))
 (= x_plus_epoch (- (+ (+ ?x937 ?x301) (- x_plus_day 1)) 730179)))))))))))))))))))))))))
(assert
 (let ((?x1885 (+ x_epoch 730179)))
 (let ((?x955 (mod ?x1885 146097)))
 (let ((?x3291 (div ?x955 36524)))
 (let ((?x2830 (ite (<= 4 ?x3291) 3 ?x3291)))
 (let ((?x785 (- ?x955 (* ?x2830 36524))))
 (let ((?x456 (mod ?x785 1461)))
 (let ((?x2088 (div ?x456 365)))
 (let ((?x374 (ite (<= 4 ?x2088) 3 ?x2088)))
 (let ((?x1234 (+ (+ (* (div ?x1885 146097) 400) (* ?x2830 100)) (* (div ?x785 1461) 4))))
 (let ((?x711 (+ (+ ?x1234 ?x374) 1)))
 (let (($x976 (or (and (= (mod ?x711 4) 0) (and (distinct (mod ?x711 100) 0) true)) (= (mod ?x711 400) 0))))
 (let ((?x678 (- ?x456 (* ?x374 365))))
 (let ((?x2492 (ite $x976 31 31)))
 (let (($x889 (>= ?x678 ?x2492)))
 (let ((?x2674 (ite $x889 (+ (- ?x678 ?x2492) 1) (+ (- ?x678 (ite $x976 0 0)) 1))))
 (let ((?x810 (ite $x976 60 59)))
 (let (($x899 (>= ?x678 ?x810)))
 (let ((?x401 (ite $x976 91 90)))
 (let (($x786 (>= ?x678 ?x401)))
 (let ((?x2597 (ite $x786 (+ (- ?x678 ?x401) 1) (ite $x899 (+ (- ?x678 ?x810) 1) ?x2674))))
 (let ((?x528 (ite $x976 121 120)))
 (let (($x2886 (>= ?x678 ?x528)))
 (let ((?x896 (ite $x976 152 151)))
 (let (($x1708 (>= ?x678 ?x896)))
 (let ((?x280 (ite $x1708 (+ (- ?x678 ?x896) 1) (ite $x2886 (+ (- ?x678 ?x528) 1) ?x2597))))
 (let ((?x256 (ite $x976 182 181)))
 (let (($x1420 (>= ?x678 ?x256)))
 (let ((?x567 (ite $x976 213 212)))
 (let (($x234 (>= ?x678 ?x567)))
 (let ((?x2628 (ite $x234 (+ (- ?x678 ?x567) 1) (ite $x1420 (+ (- ?x678 ?x256) 1) ?x280))))
 (let ((?x1440 (ite $x976 244 243)))
 (let (($x661 (>= ?x678 ?x1440)))
 (let ((?x229 (ite $x976 274 273)))
 (let (($x837 (>= ?x678 ?x229)))
 (let ((?x801 (ite $x837 (+ (- ?x678 ?x229) 1) (ite $x661 (+ (- ?x678 ?x1440) 1) ?x2628))))
 (let ((?x1705 (ite $x976 305 304)))
 (let (($x2364 (>= ?x678 ?x1705)))
 (let ((?x2685 (ite $x976 335 334)))
 (let (($x2194 (>= ?x678 ?x2685)))
 (let ((?x649 (ite $x2194 (+ (- ?x678 ?x2685) 1) (ite $x2364 (+ (- ?x678 ?x1705) 1) ?x801))))
 (let ((?x1793 (+ (* 1 12) 0)))
 (let ((?x1193 (ite $x2886 5 (ite $x786 4 (ite $x899 3 (ite $x889 2 1))))))
 (let ((?x556 (ite $x661 9 (ite $x234 8 (ite $x1420 7 (ite $x1708 6 ?x1193))))))
 (let ((?x1302 (ite $x2194 12 (ite $x2364 11 (ite $x837 10 ?x556)))))
 (let ((?x2755 (+ ?x1302 ?x1793)))
 (let ((?x3310 (- ?x2755 1)))
 (let ((?x2233 (+ (mod ?x3310 12) 1)))
 (let ((?x337 (ite (or (= ?x2233 4) (= ?x2233 6) (= ?x2233 9) (= ?x2233 11)) 30 31)))
 (let (($x3086 (and (= (mod (+ ?x711 (+ 0 (div ?x3310 12))) 4) 0) (and (distinct (mod (+ ?x711 (+ 0 (div ?x3310 12))) 100) 0) true))))
 (let (($x2199 (or $x3086 (= (mod (+ ?x711 (+ 0 (div ?x3310 12))) 400) 0))))
 (let ((?x352 (ite (= ?x2233 2) (ite $x2199 29 28) ?x337)))
 (let (($x494 (> 1 ?x649)))
 (let ((?x1870 (ite $x494 1 (ite (> ?x649 ?x352) ?x352 ?x649))))
 (let ((?x520 (ite (> 1 ?x1870) 1 (ite (> ?x1870 ?x352) ?x352 ?x1870))))
 (let ((?x2124 (ite (= 2 ?x2233) (ite $x2199 31 31) (ite (= 1 ?x2233) (ite $x2199 0 0) 0))))
 (let ((?x2801 (ite (= 4 ?x2233) (ite $x2199 91 90) (ite (= 3 ?x2233) (ite $x2199 60 59) ?x2124))))
 (let ((?x1650 (ite (= 6 ?x2233) (ite $x2199 152 151) (ite (= 5 ?x2233) (ite $x2199 121 120) ?x2801))))
 (let ((?x1625 (ite (= 8 ?x2233) (ite $x2199 213 212) (ite (= 7 ?x2233) (ite $x2199 182 181) ?x1650))))
 (let ((?x2279 (ite (= 10 ?x2233) (ite $x2199 274 273) (ite (= 9 ?x2233) (ite $x2199 244 243) ?x1625))))
 (let ((?x1910 (ite (= 12 ?x2233) (ite $x2199 335 334) (ite (= 11 ?x2233) (ite $x2199 305 304) ?x2279))))
 (let ((?x1922 (+ (* 365 (- (+ ?x711 (+ 0 (div ?x3310 12))) 1)) (div (- (+ ?x711 (+ 0 (div ?x3310 12))) 1) 4))))
 (let ((?x698 (+ (- ?x1922 (div (- (+ ?x711 (+ 0 (div ?x3310 12))) 1) 100)) (div (- (+ ?x711 (+ 0 (div ?x3310 12))) 1) 400))))
 (let ((?x2053 (+ (+ (- (+ (+ ?x698 ?x1910) (- ?x520 1)) 730179) 0) 730179)))
 (let ((?x2403 (mod ?x2053 146097)))
 (let ((?x1663 (div ?x2403 36524)))
 (let ((?x1814 (ite (<= 4 ?x1663) 3 ?x1663)))
 (let ((?x1025 (- ?x2403 (* ?x1814 36524))))
 (let ((?x933 (mod ?x1025 1461)))
 (let ((?x1634 (div ?x933 365)))
 (let ((?x2255 (ite (<= 4 ?x1634) 3 ?x1634)))
 (let ((?x2602 (+ (+ (* (div ?x2053 146097) 400) (* ?x1814 100)) (* (div ?x1025 1461) 4))))
 (let ((?x1301 (+ (+ ?x2602 ?x2255) 1)))
 (let ((?x311 (+ 0 (div ?x3310 12))))
 (let ((?x3052 (+ ?x711 ?x311)))
 (let (($x796 (= 0 0)))
 (let ((?x1345 (ite $x796 ?x3052 ?x1301)))
 (= x_plus_year ?x1345))))))))))))))))))))))))))))))))))))))))))))))))))))))))))))))))))))))))))))))
(assert
 (let ((?x1885 (+ x_epoch 730179)))
 (let ((?x955 (mod ?x1885 146097)))
 (let ((?x3291 (div ?x955 36524)))
 (let ((?x2830 (ite (<= 4 ?x3291) 3 ?x3291)))
 (let ((?x785 (- ?x955 (* ?x2830 36524))))
 (let ((?x456 (mod ?x785 1461)))
 (let ((?x2088 (div ?x456 365)))
 (let ((?x374 (ite (<= 4 ?x2088) 3 ?x2088)))
 (let ((?x1234 (+ (+ (* (div ?x1885 146097) 400) (* ?x2830 100)) (* (div ?x785 1461) 4))))
 (let ((?x711 (+ (+ ?x1234 ?x374) 1)))
 (let (($x976 (or (and (= (mod ?x711 4) 0) (and (distinct (mod ?x711 100) 0) true)) (= (mod ?x711 400) 0))))
 (let ((?x678 (- ?x456 (* ?x374 365))))
 (let ((?x2492 (ite $x976 31 31)))
 (let (($x889 (>= ?x678 ?x2492)))
 (let ((?x2674 (ite $x889 (+ (- ?x678 ?x2492) 1) (+ (- ?x678 (ite $x976 0 0)) 1))))
 (let ((?x810 (ite $x976 60 59)))
 (let (($x899 (>= ?x678 ?x810)))
 (let ((?x401 (ite $x976 91 90)))
 (let (($x786 (>= ?x678 ?x401)))
 (let ((?x2597 (ite $x786 (+ (- ?x678 ?x401) 1) (ite $x899 (+ (- ?x678 ?x810) 1) ?x2674))))
 (let ((?x528 (ite $x976 121 120)))
 (let (($x2886 (>= ?x678 ?x528)))
 (let ((?x896 (ite $x976 152 151)))
 (let (($x1708 (>= ?x678 ?x896)))
 (let ((?x280 (ite $x1708 (+ (- ?x678 ?x896) 1) (ite $x2886 (+ (- ?x678 ?x528) 1) ?x2597))))
 (let ((?x256 (ite $x976 182 181)))
 (let (($x1420 (>= ?x678 ?x256)))
 (let ((?x567 (ite $x976 213 212)))
 (let (($x234 (>= ?x678 ?x567)))
 (let ((?x2628 (ite $x234 (+ (- ?x678 ?x567) 1) (ite $x1420 (+ (- ?x678 ?x256) 1) ?x280))))
 (let ((?x1440 (ite $x976 244 243)))
 (let (($x661 (>= ?x678 ?x1440)))
 (let ((?x229 (ite $x976 274 273)))
 (let (($x837 (>= ?x678 ?x229)))
 (let ((?x801 (ite $x837 (+ (- ?x678 ?x229) 1) (ite $x661 (+ (- ?x678 ?x1440) 1) ?x2628))))
 (let ((?x1705 (ite $x976 305 304)))
 (let (($x2364 (>= ?x678 ?x1705)))
 (let ((?x2685 (ite $x976 335 334)))
 (let (($x2194 (>= ?x678 ?x2685)))
 (let ((?x649 (ite $x2194 (+ (- ?x678 ?x2685) 1) (ite $x2364 (+ (- ?x678 ?x1705) 1) ?x801))))
 (let ((?x1793 (+ (* 1 12) 0)))
 (let ((?x1193 (ite $x2886 5 (ite $x786 4 (ite $x899 3 (ite $x889 2 1))))))
 (let ((?x556 (ite $x661 9 (ite $x234 8 (ite $x1420 7 (ite $x1708 6 ?x1193))))))
 (let ((?x1302 (ite $x2194 12 (ite $x2364 11 (ite $x837 10 ?x556)))))
 (let ((?x2755 (+ ?x1302 ?x1793)))
 (let ((?x3310 (- ?x2755 1)))
 (let ((?x2233 (+ (mod ?x3310 12) 1)))
 (let ((?x337 (ite (or (= ?x2233 4) (= ?x2233 6) (= ?x2233 9) (= ?x2233 11)) 30 31)))
 (let (($x3086 (and (= (mod (+ ?x711 (+ 0 (div ?x3310 12))) 4) 0) (and (distinct (mod (+ ?x711 (+ 0 (div ?x3310 12))) 100) 0) true))))
 (let (($x2199 (or $x3086 (= (mod (+ ?x711 (+ 0 (div ?x3310 12))) 400) 0))))
 (let ((?x352 (ite (= ?x2233 2) (ite $x2199 29 28) ?x337)))
 (let (($x494 (> 1 ?x649)))
 (let ((?x1870 (ite $x494 1 (ite (> ?x649 ?x352) ?x352 ?x649))))
 (let ((?x520 (ite (> 1 ?x1870) 1 (ite (> ?x1870 ?x352) ?x352 ?x1870))))
 (let ((?x2124 (ite (= 2 ?x2233) (ite $x2199 31 31) (ite (= 1 ?x2233) (ite $x2199 0 0) 0))))
 (let ((?x2801 (ite (= 4 ?x2233) (ite $x2199 91 90) (ite (= 3 ?x2233) (ite $x2199 60 59) ?x2124))))
 (let ((?x1650 (ite (= 6 ?x2233) (ite $x2199 152 151) (ite (= 5 ?x2233) (ite $x2199 121 120) ?x2801))))
 (let ((?x1625 (ite (= 8 ?x2233) (ite $x2199 213 212) (ite (= 7 ?x2233) (ite $x2199 182 181) ?x1650))))
 (let ((?x2279 (ite (= 10 ?x2233) (ite $x2199 274 273) (ite (= 9 ?x2233) (ite $x2199 244 243) ?x1625))))
 (let ((?x1910 (ite (= 12 ?x2233) (ite $x2199 335 334) (ite (= 11 ?x2233) (ite $x2199 305 304) ?x2279))))
 (let ((?x1922 (+ (* 365 (- (+ ?x711 (+ 0 (div ?x3310 12))) 1)) (div (- (+ ?x711 (+ 0 (div ?x3310 12))) 1) 4))))
 (let ((?x698 (+ (- ?x1922 (div (- (+ ?x711 (+ 0 (div ?x3310 12))) 1) 100)) (div (- (+ ?x711 (+ 0 (div ?x3310 12))) 1) 400))))
 (let ((?x2053 (+ (+ (- (+ (+ ?x698 ?x1910) (- ?x520 1)) 730179) 0) 730179)))
 (let ((?x2403 (mod ?x2053 146097)))
 (let ((?x1663 (div ?x2403 36524)))
 (let ((?x1814 (ite (<= 4 ?x1663) 3 ?x1663)))
 (let ((?x1025 (- ?x2403 (* ?x1814 36524))))
 (let ((?x933 (mod ?x1025 1461)))
 (let ((?x1634 (div ?x933 365)))
 (let ((?x2255 (ite (<= 4 ?x1634) 3 ?x1634)))
 (let ((?x2602 (+ (+ (* (div ?x2053 146097) 400) (* ?x1814 100)) (* (div ?x1025 1461) 4))))
 (let ((?x1301 (+ (+ ?x2602 ?x2255) 1)))
 (let (($x1714 (or (and (= (mod ?x1301 4) 0) (and (distinct (mod ?x1301 100) 0) true)) (= (mod ?x1301 400) 0))))
 (let ((?x2285 (ite $x1714 31 31)))
 (let ((?x338 (- ?x933 (* ?x2255 365))))
 (let (($x3571 (>= ?x338 ?x2285)))
 (let ((?x402 (ite $x1714 60 59)))
 (let (($x691 (>= ?x338 ?x402)))
 (let ((?x1724 (ite $x1714 91 90)))
 (let (($x3545 (>= ?x338 ?x1724)))
 (let ((?x1986 (ite $x1714 121 120)))
 (let (($x3558 (>= ?x338 ?x1986)))
 (let ((?x1226 (ite $x3558 5 (ite $x3545 4 (ite $x691 3 (ite $x3571 2 1))))))
 (let ((?x2335 (ite $x1714 152 151)))
 (let (($x3557 (>= ?x338 ?x2335)))
 (let ((?x3564 (ite $x1714 182 181)))
 (let (($x1508 (>= ?x338 ?x3564)))
 (let ((?x3567 (ite $x1714 213 212)))
 (let (($x2643 (>= ?x338 ?x3567)))
 (let ((?x3565 (ite $x1714 244 243)))
 (let (($x3529 (>= ?x338 ?x3565)))
 (let ((?x3546 (ite $x3529 9 (ite $x2643 8 (ite $x1508 7 (ite $x3557 6 ?x1226))))))
 (let ((?x3568 (ite $x1714 274 273)))
 (let (($x3547 (>= ?x338 ?x3568)))
 (let ((?x3569 (ite $x1714 305 304)))
 (let (($x3544 (>= ?x338 ?x3569)))
 (let ((?x3570 (ite $x1714 335 334)))
 (let (($x3527 (>= ?x338 ?x3570)))
 (let (($x796 (= 0 0)))
 (let ((?x1346 (ite $x796 ?x2233 (ite $x3527 12 (ite $x3544 11 (ite $x3547 10 ?x3546))))))
 (= x_plus_month ?x1346))))))))))))))))))))))))))))))))))))))))))))))))))))))))))))))))))))))))))))))))))))))))))))))))))))))
(assert
 (let ((?x1885 (+ x_epoch 730179)))
 (let ((?x955 (mod ?x1885 146097)))
 (let ((?x3291 (div ?x955 36524)))
 (let ((?x2830 (ite (<= 4 ?x3291) 3 ?x3291)))
 (let ((?x785 (- ?x955 (* ?x2830 36524))))
 (let ((?x456 (mod ?x785 1461)))
 (let ((?x2088 (div ?x456 365)))
 (let ((?x374 (ite (<= 4 ?x2088) 3 ?x2088)))
 (let ((?x1234 (+ (+ (* (div ?x1885 146097) 400) (* ?x2830 100)) (* (div ?x785 1461) 4))))
 (let ((?x711 (+ (+ ?x1234 ?x374) 1)))
 (let (($x976 (or (and (= (mod ?x711 4) 0) (and (distinct (mod ?x711 100) 0) true)) (= (mod ?x711 400) 0))))
 (let ((?x678 (- ?x456 (* ?x374 365))))
 (let ((?x2492 (ite $x976 31 31)))
 (let (($x889 (>= ?x678 ?x2492)))
 (let ((?x2674 (ite $x889 (+ (- ?x678 ?x2492) 1) (+ (- ?x678 (ite $x976 0 0)) 1))))
 (let ((?x810 (ite $x976 60 59)))
 (let (($x899 (>= ?x678 ?x810)))
 (let ((?x401 (ite $x976 91 90)))
 (let (($x786 (>= ?x678 ?x401)))
 (let ((?x2597 (ite $x786 (+ (- ?x678 ?x401) 1) (ite $x899 (+ (- ?x678 ?x810) 1) ?x2674))))
 (let ((?x528 (ite $x976 121 120)))
 (let (($x2886 (>= ?x678 ?x528)))
 (let ((?x896 (ite $x976 152 151)))
 (let (($x1708 (>= ?x678 ?x896)))
 (let ((?x280 (ite $x1708 (+ (- ?x678 ?x896) 1) (ite $x2886 (+ (- ?x678 ?x528) 1) ?x2597))))
 (let ((?x256 (ite $x976 182 181)))
 (let (($x1420 (>= ?x678 ?x256)))
 (let ((?x567 (ite $x976 213 212)))
 (let (($x234 (>= ?x678 ?x567)))
 (let ((?x2628 (ite $x234 (+ (- ?x678 ?x567) 1) (ite $x1420 (+ (- ?x678 ?x256) 1) ?x280))))
 (let ((?x1440 (ite $x976 244 243)))
 (let (($x661 (>= ?x678 ?x1440)))
 (let ((?x229 (ite $x976 274 273)))
 (let (($x837 (>= ?x678 ?x229)))
 (let ((?x801 (ite $x837 (+ (- ?x678 ?x229) 1) (ite $x661 (+ (- ?x678 ?x1440) 1) ?x2628))))
 (let ((?x1705 (ite $x976 305 304)))
 (let (($x2364 (>= ?x678 ?x1705)))
 (let ((?x2685 (ite $x976 335 334)))
 (let (($x2194 (>= ?x678 ?x2685)))
 (let ((?x649 (ite $x2194 (+ (- ?x678 ?x2685) 1) (ite $x2364 (+ (- ?x678 ?x1705) 1) ?x801))))
 (let ((?x1793 (+ (* 1 12) 0)))
 (let ((?x1193 (ite $x2886 5 (ite $x786 4 (ite $x899 3 (ite $x889 2 1))))))
 (let ((?x556 (ite $x661 9 (ite $x234 8 (ite $x1420 7 (ite $x1708 6 ?x1193))))))
 (let ((?x1302 (ite $x2194 12 (ite $x2364 11 (ite $x837 10 ?x556)))))
 (let ((?x2755 (+ ?x1302 ?x1793)))
 (let ((?x3310 (- ?x2755 1)))
 (let ((?x2233 (+ (mod ?x3310 12) 1)))
 (let ((?x337 (ite (or (= ?x2233 4) (= ?x2233 6) (= ?x2233 9) (= ?x2233 11)) 30 31)))
 (let (($x3086 (and (= (mod (+ ?x711 (+ 0 (div ?x3310 12))) 4) 0) (and (distinct (mod (+ ?x711 (+ 0 (div ?x3310 12))) 100) 0) true))))
 (let (($x2199 (or $x3086 (= (mod (+ ?x711 (+ 0 (div ?x3310 12))) 400) 0))))
 (let ((?x352 (ite (= ?x2233 2) (ite $x2199 29 28) ?x337)))
 (let (($x494 (> 1 ?x649)))
 (let ((?x1870 (ite $x494 1 (ite (> ?x649 ?x352) ?x352 ?x649))))
 (let ((?x520 (ite (> 1 ?x1870) 1 (ite (> ?x1870 ?x352) ?x352 ?x1870))))
 (let ((?x2124 (ite (= 2 ?x2233) (ite $x2199 31 31) (ite (= 1 ?x2233) (ite $x2199 0 0) 0))))
 (let ((?x2801 (ite (= 4 ?x2233) (ite $x2199 91 90) (ite (= 3 ?x2233) (ite $x2199 60 59) ?x2124))))
 (let ((?x1650 (ite (= 6 ?x2233) (ite $x2199 152 151) (ite (= 5 ?x2233) (ite $x2199 121 120) ?x2801))))
 (let ((?x1625 (ite (= 8 ?x2233) (ite $x2199 213 212) (ite (= 7 ?x2233) (ite $x2199 182 181) ?x1650))))
 (let ((?x2279 (ite (= 10 ?x2233) (ite $x2199 274 273) (ite (= 9 ?x2233) (ite $x2199 244 243) ?x1625))))
 (let ((?x1910 (ite (= 12 ?x2233) (ite $x2199 335 334) (ite (= 11 ?x2233) (ite $x2199 305 304) ?x2279))))
 (let ((?x1922 (+ (* 365 (- (+ ?x711 (+ 0 (div ?x3310 12))) 1)) (div (- (+ ?x711 (+ 0 (div ?x3310 12))) 1) 4))))
 (let ((?x698 (+ (- ?x1922 (div (- (+ ?x711 (+ 0 (div ?x3310 12))) 1) 100)) (div (- (+ ?x711 (+ 0 (div ?x3310 12))) 1) 400))))
 (let ((?x2053 (+ (+ (- (+ (+ ?x698 ?x1910) (- ?x520 1)) 730179) 0) 730179)))
 (let ((?x2403 (mod ?x2053 146097)))
 (let ((?x1663 (div ?x2403 36524)))
 (let ((?x1814 (ite (<= 4 ?x1663) 3 ?x1663)))
 (let ((?x1025 (- ?x2403 (* ?x1814 36524))))
 (let ((?x933 (mod ?x1025 1461)))
 (let ((?x1634 (div ?x933 365)))
 (let ((?x2255 (ite (<= 4 ?x1634) 3 ?x1634)))
 (let ((?x2602 (+ (+ (* (div ?x2053 146097) 400) (* ?x1814 100)) (* (div ?x1025 1461) 4))))
 (let ((?x1301 (+ (+ ?x2602 ?x2255) 1)))
 (let (($x1714 (or (and (= (mod ?x1301 4) 0) (and (distinct (mod ?x1301 100) 0) true)) (= (mod ?x1301 400) 0))))
 (let ((?x338 (- ?x933 (* ?x2255 365))))
 (let ((?x2285 (ite $x1714 31 31)))
 (let (($x3571 (>= ?x338 ?x2285)))
 (let ((?x3520 (ite $x3571 (+ (- ?x338 ?x2285) 1) (+ (- ?x338 (ite $x1714 0 0)) 1))))
 (let ((?x402 (ite $x1714 60 59)))
 (let (($x691 (>= ?x338 ?x402)))
 (let ((?x1724 (ite $x1714 91 90)))
 (let (($x3545 (>= ?x338 ?x1724)))
 (let ((?x1809 (ite $x3545 (+ (- ?x338 ?x1724) 1) (ite $x691 (+ (- ?x338 ?x402) 1) ?x3520))))
 (let ((?x1986 (ite $x1714 121 120)))
 (let (($x3558 (>= ?x338 ?x1986)))
 (let ((?x2335 (ite $x1714 152 151)))
 (let (($x3557 (>= ?x338 ?x2335)))
 (let ((?x1585 (ite $x3557 (+ (- ?x338 ?x2335) 1) (ite $x3558 (+ (- ?x338 ?x1986) 1) ?x1809))))
 (let ((?x3564 (ite $x1714 182 181)))
 (let (($x1508 (>= ?x338 ?x3564)))
 (let ((?x3567 (ite $x1714 213 212)))
 (let (($x2643 (>= ?x338 ?x3567)))
 (let ((?x1607 (ite $x2643 (+ (- ?x338 ?x3567) 1) (ite $x1508 (+ (- ?x338 ?x3564) 1) ?x1585))))
 (let ((?x3565 (ite $x1714 244 243)))
 (let (($x3529 (>= ?x338 ?x3565)))
 (let ((?x3568 (ite $x1714 274 273)))
 (let (($x3547 (>= ?x338 ?x3568)))
 (let ((?x1645 (ite $x3547 (+ (- ?x338 ?x3568) 1) (ite $x3529 (+ (- ?x338 ?x3565) 1) ?x1607))))
 (let ((?x3569 (ite $x1714 305 304)))
 (let (($x3544 (>= ?x338 ?x3569)))
 (let ((?x3570 (ite $x1714 335 334)))
 (let (($x3527 (>= ?x338 ?x3570)))
 (let ((?x1496 (ite $x3527 (+ (- ?x338 ?x3570) 1) (ite $x3544 (+ (- ?x338 ?x3569) 1) ?x1645))))
 (let (($x796 (= 0 0)))
 (let ((?x2594 (ite $x796 ?x520 ?x1496)))
 (= x_plus_day ?x2594))))))))))))))))))))))))))))))))))))))))))))))))))))))))))))))))))))))))))))))))))))))))))))))))))))))))))
(assert
 (>= x_plus_1_epoch (- 36584)))
(assert
 (<= x_plus_1_epoch 36829))
(assert
 (= x_plus_1_epoch (+ x_epoch 366)))
(assert
 (not (= x_plus_epoch x_plus_1_epoch)))
(check-sat)
